# Solution for model MIP
# Objective value = -2.1505421667177791e+02
theta -1.6101948084258220e+02
z_w0_k0_m0 8.0071846430373561e-01
z_w0_k0_m1 8.0071846430373561e-01
z_w0_k1_m0 8.5768326186639310e-01
z_w0_k1_m1 4.4452574228590946e-02
z_w0_k2_m0 9.0340762996845725e-01
z_w0_k2_m1 9.0340762996845725e-01
z_w1_k0_m0 8.0071846430373561e-01
z_w1_k0_m1 8.0071846430373561e-01
z_w1_k1_m0 8.5768326186639310e-01
z_w1_k1_m1 4.4452574228590946e-02
z_w1_k2_m0 9.0340762996845725e-01
z_w1_k2_m1 9.0340762996845725e-01
z_w2_k0_m0 8.0071846430373561e-01
z_w2_k0_m1 8.0071846430373561e-01
z_w2_k1_m0 8.8473909746415047e-01
z_w2_k1_m1 8.8473909746415047e-01
z_w2_k2_m0 9.0340762996845725e-01
z_w2_k2_m1 9.0340762996845725e-01
z_w3_k0_m0 8.5768326186639310e-01
z_w3_k0_m1 4.4452574228590946e-02
z_w3_k1_m0 8.8473909746415047e-01
z_w3_k1_m1 8.8473909746415047e-01
z_w3_k2_m0 8.5768326186639310e-01
z_w3_k2_m1 4.4452574228590946e-02
z_w4_k0_m0 8.5768326186639310e-01
z_w4_k0_m1 4.4452574228590946e-02
z_w4_k1_m0 8.8473909746415047e-01
z_w4_k1_m1 8.8473909746415047e-01
z_w4_k2_m0 8.5768326186639310e-01
z_w4_k2_m1 4.4452574228590946e-02
pi_w0_t0_k0 0
pi_w0_t0_k1 1
pi_w0_t0_k2 0
pi_w0_t1_k0 0
pi_w0_t1_k1 0
pi_w0_t1_k2 0
pi_w0_t2_k0 0
pi_w0_t2_k1 0
pi_w0_t2_k2 0
pi_w0_t3_k0 1.5259212788321330e-01
pi_w0_t3_k1 0
pi_w0_t3_k2 0
pi_w0_t4_k0 0
pi_w0_t4_k1 0
pi_w0_t4_k2 0
pi_w0_t5_k0 0
pi_w0_t5_k1 0
pi_w0_t5_k2 0
pi_w0_t6_k0 0
pi_w0_t6_k1 0
pi_w0_t6_k2 0
pi_w0_t7_k0 0
pi_w0_t7_k1 0
pi_w0_t7_k2 0
pi_w0_t8_k0 0
pi_w0_t8_k1 0
pi_w0_t8_k2 0
pi_w0_t9_k0 0
pi_w0_t9_k1 0
pi_w0_t9_k2 0
pi_w0_t10_k0 0
pi_w0_t10_k1 0
pi_w0_t10_k2 0
pi_w0_t11_k0 7.6140708648876609e-01
pi_w0_t11_k1 0
pi_w0_t11_k2 0
pi_w0_t12_k0 0
pi_w0_t12_k1 0
pi_w0_t12_k2 0
pi_w0_t13_k0 0
pi_w0_t13_k1 0
pi_w0_t13_k2 0
pi_w0_t14_k0 8.6000785628020604e-02
pi_w0_t14_k1 0
pi_w0_t14_k2 0
pi_w0_t15_k0 0
pi_w0_t15_k1 0
pi_w0_t15_k2 4.8276160764126730e-01
pi_w0_t16_k0 0
pi_w0_t16_k1 0
pi_w0_t16_k2 0
pi_w0_t17_k0 0
pi_w0_t17_k1 0
pi_w0_t17_k2 0
pi_w0_t18_k0 0
pi_w0_t18_k1 0
pi_w0_t18_k2 0
pi_w0_t19_k0 0
pi_w0_t19_k1 0
pi_w0_t19_k2 0
pi_w0_t20_k0 0
pi_w0_t20_k1 0
pi_w0_t20_k2 0
pi_w0_t21_k0 0
pi_w0_t21_k1 0
pi_w0_t21_k2 0
pi_w0_t22_k0 0
pi_w0_t22_k1 0
pi_w0_t22_k2 0
pi_w0_t23_k0 0
pi_w0_t23_k1 0
pi_w0_t23_k2 0
pi_w0_t24_k0 0
pi_w0_t24_k1 0
pi_w0_t24_k2 0
pi_w0_t25_k0 0
pi_w0_t25_k1 0
pi_w0_t25_k2 0
pi_w0_t26_k0 0
pi_w0_t26_k1 0
pi_w0_t26_k2 0
pi_w0_t27_k0 0
pi_w0_t27_k1 0
pi_w0_t27_k2 0
pi_w0_t28_k0 0
pi_w0_t28_k1 0
pi_w0_t28_k2 0
pi_w0_t29_k0 0
pi_w0_t29_k1 0
pi_w0_t29_k2 0
pi_w0_t30_k0 0
pi_w0_t30_k1 0
pi_w0_t30_k2 0
pi_w0_t31_k0 0
pi_w0_t31_k1 0
pi_w0_t31_k2 0
pi_w0_t32_k0 0
pi_w0_t32_k1 0
pi_w0_t32_k2 2.1240985971642481e-01
pi_w0_t33_k0 0
pi_w0_t33_k1 0
pi_w0_t33_k2 3.0482853264230791e-01
pi_w0_t34_k0 0
pi_w0_t34_k1 0
pi_w0_t34_k2 0
pi_w0_t35_k0 0
pi_w0_t35_k1 0
pi_w0_t35_k2 0
pi_w0_t36_k0 0
pi_w0_t36_k1 0
pi_w0_t36_k2 0
pi_w0_t37_k0 0
pi_w0_t37_k1 0
pi_w0_t37_k2 0
pi_w0_t38_k0 0
pi_w0_t38_k1 0
pi_w0_t38_k2 0
pi_w0_t39_k0 0
pi_w0_t39_k1 0
pi_w0_t39_k2 0
pi_w0_t40_k0 0
pi_w0_t40_k1 0
pi_w0_t40_k2 0
pi_w0_t41_k0 0
pi_w0_t41_k1 0
pi_w0_t41_k2 0
pi_w1_t0_k0 0
pi_w1_t0_k1 1
pi_w1_t0_k2 0
pi_w1_t1_k0 0
pi_w1_t1_k1 0
pi_w1_t1_k2 0
pi_w1_t2_k0 0
pi_w1_t2_k1 0
pi_w1_t2_k2 0
pi_w1_t3_k0 1.5259212788321330e-01
pi_w1_t3_k1 0
pi_w1_t3_k2 0
pi_w1_t4_k0 0
pi_w1_t4_k1 0
pi_w1_t4_k2 0
pi_w1_t5_k0 0
pi_w1_t5_k1 0
pi_w1_t5_k2 0
pi_w1_t6_k0 0
pi_w1_t6_k1 0
pi_w1_t6_k2 0
pi_w1_t7_k0 0
pi_w1_t7_k1 0
pi_w1_t7_k2 0
pi_w1_t8_k0 0
pi_w1_t8_k1 0
pi_w1_t8_k2 0
pi_w1_t9_k0 0
pi_w1_t9_k1 0
pi_w1_t9_k2 0
pi_w1_t10_k0 0
pi_w1_t10_k1 0
pi_w1_t10_k2 0
pi_w1_t11_k0 7.6140708648876609e-01
pi_w1_t11_k1 0
pi_w1_t11_k2 0
pi_w1_t12_k0 0
pi_w1_t12_k1 0
pi_w1_t12_k2 0
pi_w1_t13_k0 0
pi_w1_t13_k1 0
pi_w1_t13_k2 0
pi_w1_t14_k0 8.6000785628020604e-02
pi_w1_t14_k1 0
pi_w1_t14_k2 0
pi_w1_t15_k0 0
pi_w1_t15_k1 0
pi_w1_t15_k2 4.8276160764126774e-01
pi_w1_t16_k0 0
pi_w1_t16_k1 0
pi_w1_t16_k2 0
pi_w1_t17_k0 0
pi_w1_t17_k1 0
pi_w1_t17_k2 0
pi_w1_t18_k0 0
pi_w1_t18_k1 0
pi_w1_t18_k2 0
pi_w1_t19_k0 0
pi_w1_t19_k1 0
pi_w1_t19_k2 0
pi_w1_t20_k0 0
pi_w1_t20_k1 0
pi_w1_t20_k2 0
pi_w1_t21_k0 0
pi_w1_t21_k1 0
pi_w1_t21_k2 0
pi_w1_t22_k0 0
pi_w1_t22_k1 0
pi_w1_t22_k2 0
pi_w1_t23_k0 0
pi_w1_t23_k1 0
pi_w1_t23_k2 0
pi_w1_t24_k0 0
pi_w1_t24_k1 0
pi_w1_t24_k2 0
pi_w1_t25_k0 0
pi_w1_t25_k1 0
pi_w1_t25_k2 0
pi_w1_t26_k0 0
pi_w1_t26_k1 0
pi_w1_t26_k2 0
pi_w1_t27_k0 0
pi_w1_t27_k1 0
pi_w1_t27_k2 0
pi_w1_t28_k0 0
pi_w1_t28_k1 0
pi_w1_t28_k2 0
pi_w1_t29_k0 0
pi_w1_t29_k1 0
pi_w1_t29_k2 0
pi_w1_t30_k0 0
pi_w1_t30_k1 0
pi_w1_t30_k2 0
pi_w1_t31_k0 0
pi_w1_t31_k1 0
pi_w1_t31_k2 0
pi_w1_t32_k0 0
pi_w1_t32_k1 0
pi_w1_t32_k2 2.1240985971642426e-01
pi_w1_t33_k0 0
pi_w1_t33_k1 0
pi_w1_t33_k2 3.0482853264230803e-01
pi_w1_t34_k0 0
pi_w1_t34_k1 0
pi_w1_t34_k2 0
pi_w1_t35_k0 0
pi_w1_t35_k1 0
pi_w1_t35_k2 0
pi_w1_t36_k0 0
pi_w1_t36_k1 0
pi_w1_t36_k2 0
pi_w1_t37_k0 0
pi_w1_t37_k1 0
pi_w1_t37_k2 0
pi_w1_t38_k0 0
pi_w1_t38_k1 0
pi_w1_t38_k2 0
pi_w1_t39_k0 0
pi_w1_t39_k1 0
pi_w1_t39_k2 0
pi_w1_t40_k0 0
pi_w1_t40_k1 0
pi_w1_t40_k2 0
pi_w1_t41_k0 0
pi_w1_t41_k1 0
pi_w1_t41_k2 0
pi_w2_t0_k0 0
pi_w2_t0_k1 0
pi_w2_t0_k2 0
pi_w2_t1_k0 0
pi_w2_t1_k1 0
pi_w2_t1_k2 0
pi_w2_t2_k0 0
pi_w2_t2_k1 0
pi_w2_t2_k2 0
pi_w2_t3_k0 1.5259212788321330e-01
pi_w2_t3_k1 0
pi_w2_t3_k2 0
pi_w2_t4_k0 0
pi_w2_t4_k1 0
pi_w2_t4_k2 0
pi_w2_t5_k0 0
pi_w2_t5_k1 0
pi_w2_t5_k2 0
pi_w2_t6_k0 0
pi_w2_t6_k1 0
pi_w2_t6_k2 0
pi_w2_t7_k0 0
pi_w2_t7_k1 3.0840268695571205e-01
pi_w2_t7_k2 0
pi_w2_t8_k0 0
pi_w2_t8_k1 0
pi_w2_t8_k2 0
pi_w2_t9_k0 0
pi_w2_t9_k1 0
pi_w2_t9_k2 0
pi_w2_t10_k0 0
pi_w2_t10_k1 0
pi_w2_t10_k2 0
pi_w2_t11_k0 7.6140708648876609e-01
pi_w2_t11_k1 0
pi_w2_t11_k2 0
pi_w2_t12_k0 0
pi_w2_t12_k1 0
pi_w2_t12_k2 0
pi_w2_t13_k0 0
pi_w2_t13_k1 0
pi_w2_t13_k2 0
pi_w2_t14_k0 8.6000785628020604e-02
pi_w2_t14_k1 0
pi_w2_t14_k2 0
pi_w2_t15_k0 0
pi_w2_t15_k1 2.7156173577909420e-01
pi_w2_t15_k2 4.8276160764126835e-01
pi_w2_t16_k0 0
pi_w2_t16_k1 0
pi_w2_t16_k2 0
pi_w2_t17_k0 0
pi_w2_t17_k1 0
pi_w2_t17_k2 0
pi_w2_t18_k0 0
pi_w2_t18_k1 0
pi_w2_t18_k2 0
pi_w2_t19_k0 0
pi_w2_t19_k1 0
pi_w2_t19_k2 0
pi_w2_t20_k0 0
pi_w2_t20_k1 0
pi_w2_t20_k2 0
pi_w2_t21_k0 0
pi_w2_t21_k1 0
pi_w2_t21_k2 0
pi_w2_t22_k0 0
pi_w2_t22_k1 0
pi_w2_t22_k2 0
pi_w2_t23_k0 0
pi_w2_t23_k1 0
pi_w2_t23_k2 0
pi_w2_t24_k0 0
pi_w2_t24_k1 0
pi_w2_t24_k2 0
pi_w2_t25_k0 0
pi_w2_t25_k1 0
pi_w2_t25_k2 0
pi_w2_t26_k0 0
pi_w2_t26_k1 0
pi_w2_t26_k2 0
pi_w2_t27_k0 0
pi_w2_t27_k1 0
pi_w2_t27_k2 0
pi_w2_t28_k0 0
pi_w2_t28_k1 0
pi_w2_t28_k2 0
pi_w2_t29_k0 0
pi_w2_t29_k1 0
pi_w2_t29_k2 0
pi_w2_t30_k0 0
pi_w2_t30_k1 0
pi_w2_t30_k2 0
pi_w2_t31_k0 0
pi_w2_t31_k1 0
pi_w2_t31_k2 0
pi_w2_t32_k0 0
pi_w2_t32_k1 0
pi_w2_t32_k2 2.1240985971642384e-01
pi_w2_t33_k0 0
pi_w2_t33_k1 4.2003557726519369e-01
pi_w2_t33_k2 3.0482853264230769e-01
pi_w2_t34_k0 0
pi_w2_t34_k1 0
pi_w2_t34_k2 0
pi_w2_t35_k0 0
pi_w2_t35_k1 0
pi_w2_t35_k2 0
pi_w2_t36_k0 0
pi_w2_t36_k1 0
pi_w2_t36_k2 0
pi_w2_t37_k0 0
pi_w2_t37_k1 0
pi_w2_t37_k2 0
pi_w2_t38_k0 0
pi_w2_t38_k1 0
pi_w2_t38_k2 0
pi_w2_t39_k0 0
pi_w2_t39_k1 0
pi_w2_t39_k2 0
pi_w2_t40_k0 0
pi_w2_t40_k1 0
pi_w2_t40_k2 0
pi_w2_t41_k0 0
pi_w2_t41_k1 0
pi_w2_t41_k2 0
pi_w3_t0_k0 1
pi_w3_t0_k1 0
pi_w3_t0_k2 1
pi_w3_t1_k0 0
pi_w3_t1_k1 0
pi_w3_t1_k2 0
pi_w3_t2_k0 0
pi_w3_t2_k1 0
pi_w3_t2_k2 0
pi_w3_t3_k0 0
pi_w3_t3_k1 0
pi_w3_t3_k2 0
pi_w3_t4_k0 0
pi_w3_t4_k1 0
pi_w3_t4_k2 0
pi_w3_t5_k0 0
pi_w3_t5_k1 0
pi_w3_t5_k2 0
pi_w3_t6_k0 0
pi_w3_t6_k1 0
pi_w3_t6_k2 0
pi_w3_t7_k0 0
pi_w3_t7_k1 3.0840268695571205e-01
pi_w3_t7_k2 0
pi_w3_t8_k0 0
pi_w3_t8_k1 0
pi_w3_t8_k2 0
pi_w3_t9_k0 0
pi_w3_t9_k1 0
pi_w3_t9_k2 0
pi_w3_t10_k0 0
pi_w3_t10_k1 0
pi_w3_t10_k2 0
pi_w3_t11_k0 0
pi_w3_t11_k1 0
pi_w3_t11_k2 0
pi_w3_t12_k0 0
pi_w3_t12_k1 0
pi_w3_t12_k2 0
pi_w3_t13_k0 0
pi_w3_t13_k1 0
pi_w3_t13_k2 0
pi_w3_t14_k0 0
pi_w3_t14_k1 0
pi_w3_t14_k2 0
pi_w3_t15_k0 0
pi_w3_t15_k1 2.7156173577909420e-01
pi_w3_t15_k2 0
pi_w3_t16_k0 0
pi_w3_t16_k1 0
pi_w3_t16_k2 0
pi_w3_t17_k0 0
pi_w3_t17_k1 0
pi_w3_t17_k2 0
pi_w3_t18_k0 0
pi_w3_t18_k1 0
pi_w3_t18_k2 0
pi_w3_t19_k0 0
pi_w3_t19_k1 0
pi_w3_t19_k2 0
pi_w3_t20_k0 0
pi_w3_t20_k1 0
pi_w3_t20_k2 0
pi_w3_t21_k0 0
pi_w3_t21_k1 0
pi_w3_t21_k2 0
pi_w3_t22_k0 0
pi_w3_t22_k1 0
pi_w3_t22_k2 0
pi_w3_t23_k0 0
pi_w3_t23_k1 0
pi_w3_t23_k2 0
pi_w3_t24_k0 0
pi_w3_t24_k1 0
pi_w3_t24_k2 0
pi_w3_t25_k0 0
pi_w3_t25_k1 0
pi_w3_t25_k2 0
pi_w3_t26_k0 0
pi_w3_t26_k1 0
pi_w3_t26_k2 0
pi_w3_t27_k0 0
pi_w3_t27_k1 0
pi_w3_t27_k2 0
pi_w3_t28_k0 0
pi_w3_t28_k1 0
pi_w3_t28_k2 0
pi_w3_t29_k0 0
pi_w3_t29_k1 0
pi_w3_t29_k2 0
pi_w3_t30_k0 0
pi_w3_t30_k1 0
pi_w3_t30_k2 0
pi_w3_t31_k0 0
pi_w3_t31_k1 0
pi_w3_t31_k2 0
pi_w3_t32_k0 0
pi_w3_t32_k1 0
pi_w3_t32_k2 0
pi_w3_t33_k0 0
pi_w3_t33_k1 4.2003557726519369e-01
pi_w3_t33_k2 0
pi_w3_t34_k0 0
pi_w3_t34_k1 0
pi_w3_t34_k2 0
pi_w3_t35_k0 0
pi_w3_t35_k1 0
pi_w3_t35_k2 0
pi_w3_t36_k0 0
pi_w3_t36_k1 0
pi_w3_t36_k2 0
pi_w3_t37_k0 0
pi_w3_t37_k1 0
pi_w3_t37_k2 0
pi_w3_t38_k0 0
pi_w3_t38_k1 0
pi_w3_t38_k2 0
pi_w3_t39_k0 0
pi_w3_t39_k1 0
pi_w3_t39_k2 0
pi_w3_t40_k0 0
pi_w3_t40_k1 0
pi_w3_t40_k2 0
pi_w3_t41_k0 0
pi_w3_t41_k1 0
pi_w3_t41_k2 0
pi_w4_t0_k0 1
pi_w4_t0_k1 0
pi_w4_t0_k2 1
pi_w4_t1_k0 0
pi_w4_t1_k1 0
pi_w4_t1_k2 0
pi_w4_t2_k0 0
pi_w4_t2_k1 1.1483497650144128e-02
pi_w4_t2_k2 0
pi_w4_t3_k0 0
pi_w4_t3_k1 0
pi_w4_t3_k2 0
pi_w4_t4_k0 0
pi_w4_t4_k1 0
pi_w4_t4_k2 0
pi_w4_t5_k0 0
pi_w4_t5_k1 0
pi_w4_t5_k2 0
pi_w4_t6_k0 0
pi_w4_t6_k1 0
pi_w4_t6_k2 0
pi_w4_t7_k0 0
pi_w4_t7_k1 0
pi_w4_t7_k2 0
pi_w4_t8_k0 0
pi_w4_t8_k1 0
pi_w4_t8_k2 0
pi_w4_t9_k0 0
pi_w4_t9_k1 0
pi_w4_t9_k2 0
pi_w4_t10_k0 0
pi_w4_t10_k1 0
pi_w4_t10_k2 0
pi_w4_t11_k0 0
pi_w4_t11_k1 2.6751455843301347e-01
pi_w4_t11_k2 0
pi_w4_t12_k0 0
pi_w4_t12_k1 0
pi_w4_t12_k2 0
pi_w4_t13_k0 0
pi_w4_t13_k1 0
pi_w4_t13_k2 0
pi_w4_t14_k0 0
pi_w4_t14_k1 0
pi_w4_t14_k2 0
pi_w4_t15_k0 0
pi_w4_t15_k1 7.2100194391684247e-01
pi_w4_t15_k2 0
pi_w4_t16_k0 0
pi_w4_t16_k1 0
pi_w4_t16_k2 0
pi_w4_t17_k0 0
pi_w4_t17_k1 0
pi_w4_t17_k2 0
pi_w4_t18_k0 0
pi_w4_t18_k1 0
pi_w4_t18_k2 0
pi_w4_t19_k0 0
pi_w4_t19_k1 0
pi_w4_t19_k2 0
pi_w4_t20_k0 0
pi_w4_t20_k1 0
pi_w4_t20_k2 0
pi_w4_t21_k0 0
pi_w4_t21_k1 0
pi_w4_t21_k2 0
pi_w4_t22_k0 0
pi_w4_t22_k1 0
pi_w4_t22_k2 0
pi_w4_t23_k0 0
pi_w4_t23_k1 0
pi_w4_t23_k2 0
pi_w4_t24_k0 0
pi_w4_t24_k1 0
pi_w4_t24_k2 0
pi_w4_t25_k0 0
pi_w4_t25_k1 0
pi_w4_t25_k2 0
pi_w4_t26_k0 0
pi_w4_t26_k1 0
pi_w4_t26_k2 0
pi_w4_t27_k0 0
pi_w4_t27_k1 0
pi_w4_t27_k2 0
pi_w4_t28_k0 0
pi_w4_t28_k1 0
pi_w4_t28_k2 0
pi_w4_t29_k0 0
pi_w4_t29_k1 0
pi_w4_t29_k2 0
pi_w4_t30_k0 0
pi_w4_t30_k1 0
pi_w4_t30_k2 0
pi_w4_t31_k0 0
pi_w4_t31_k1 0
pi_w4_t31_k2 0
pi_w4_t32_k0 0
pi_w4_t32_k1 0
pi_w4_t32_k2 0
pi_w4_t33_k0 0
pi_w4_t33_k1 0
pi_w4_t33_k2 0
pi_w4_t34_k0 0
pi_w4_t34_k1 0
pi_w4_t34_k2 0
pi_w4_t35_k0 0
pi_w4_t35_k1 0
pi_w4_t35_k2 0
pi_w4_t36_k0 0
pi_w4_t36_k1 0
pi_w4_t36_k2 0
pi_w4_t37_k0 0
pi_w4_t37_k1 0
pi_w4_t37_k2 0
pi_w4_t38_k0 0
pi_w4_t38_k1 0
pi_w4_t38_k2 0
pi_w4_t39_k0 0
pi_w4_t39_k1 0
pi_w4_t39_k2 0
pi_w4_t40_k0 0
pi_w4_t40_k1 0
pi_w4_t40_k2 0
pi_w4_t41_k0 0
pi_w4_t41_k1 0
pi_w4_t41_k2 0
n_w0_t0_k0 0
n_w0_t0_k1 0
n_w0_t0_k2 0
n_w0_t1_k0 0
n_w0_t1_k1 0
n_w0_t1_k2 0
n_w0_t2_k0 0
n_w0_t2_k1 0
n_w0_t2_k2 0
n_w0_t3_k0 7.6296063941606649e+00
n_w0_t3_k1 0
n_w0_t3_k2 0
n_w0_t4_k0 0
n_w0_t4_k1 0
n_w0_t4_k2 0
n_w0_t5_k0 0
n_w0_t5_k1 0
n_w0_t5_k2 0
n_w0_t6_k0 0
n_w0_t6_k1 0
n_w0_t6_k2 0
n_w0_t7_k0 0
n_w0_t7_k1 0
n_w0_t7_k2 0
n_w0_t8_k0 0
n_w0_t8_k1 0
n_w0_t8_k2 0
n_w0_t9_k0 0
n_w0_t9_k1 0
n_w0_t9_k2 0
n_w0_t10_k0 0
n_w0_t10_k1 0
n_w0_t10_k2 0
n_w0_t11_k0 3.8070354324438306e+01
n_w0_t11_k1 0
n_w0_t11_k2 0
n_w0_t12_k0 0
n_w0_t12_k1 0
n_w0_t12_k2 0
n_w0_t13_k0 0
n_w0_t13_k1 0
n_w0_t13_k2 0
n_w0_t14_k0 4.3000392814010304e+00
n_w0_t14_k1 0
n_w0_t14_k2 0
n_w0_t15_k0 0
n_w0_t15_k1 0
n_w0_t15_k2 1.2551801798672949e+01
n_w0_t16_k0 0
n_w0_t16_k1 0
n_w0_t16_k2 0
n_w0_t17_k0 0
n_w0_t17_k1 0
n_w0_t17_k2 0
n_w0_t18_k0 0
n_w0_t18_k1 0
n_w0_t18_k2 0
n_w0_t19_k0 0
n_w0_t19_k1 0
n_w0_t19_k2 0
n_w0_t20_k0 0
n_w0_t20_k1 0
n_w0_t20_k2 0
n_w0_t21_k0 0
n_w0_t21_k1 0
n_w0_t21_k2 0
n_w0_t22_k0 0
n_w0_t22_k1 0
n_w0_t22_k2 0
n_w0_t23_k0 0
n_w0_t23_k1 0
n_w0_t23_k2 0
n_w0_t24_k0 0
n_w0_t24_k1 0
n_w0_t24_k2 0
n_w0_t25_k0 0
n_w0_t25_k1 0
n_w0_t25_k2 0
n_w0_t26_k0 0
n_w0_t26_k1 0
n_w0_t26_k2 0
n_w0_t27_k0 0
n_w0_t27_k1 0
n_w0_t27_k2 0
n_w0_t28_k0 0
n_w0_t28_k1 0
n_w0_t28_k2 0
n_w0_t29_k0 0
n_w0_t29_k1 0
n_w0_t29_k2 0
n_w0_t30_k0 0
n_w0_t30_k1 0
n_w0_t30_k2 0
n_w0_t31_k0 0
n_w0_t31_k1 0
n_w0_t31_k2 0
n_w0_t32_k0 0
n_w0_t32_k1 0
n_w0_t32_k2 5.5226563526270454e+00
n_w0_t33_k0 0
n_w0_t33_k1 0
n_w0_t33_k2 7.9255418487000053e+00
n_w0_t34_k0 0
n_w0_t34_k1 0
n_w0_t34_k2 0
n_w0_t35_k0 0
n_w0_t35_k1 0
n_w0_t35_k2 0
n_w0_t36_k0 0
n_w0_t36_k1 0
n_w0_t36_k2 0
n_w0_t37_k0 0
n_w0_t37_k1 0
n_w0_t37_k2 0
n_w0_t38_k0 0
n_w0_t38_k1 0
n_w0_t38_k2 0
n_w0_t39_k0 0
n_w0_t39_k1 0
n_w0_t39_k2 0
n_w0_t40_k0 0
n_w0_t40_k1 0
n_w0_t40_k2 0
n_w0_t41_k0 0
n_w0_t41_k1 0
n_w0_t41_k2 0
n_w1_t0_k0 0
n_w1_t0_k1 0
n_w1_t0_k2 0
n_w1_t1_k0 0
n_w1_t1_k1 0
n_w1_t1_k2 0
n_w1_t2_k0 0
n_w1_t2_k1 0
n_w1_t2_k2 0
n_w1_t3_k0 1.6785134067153464e+00
n_w1_t3_k1 0
n_w1_t3_k2 0
n_w1_t4_k0 0
n_w1_t4_k1 0
n_w1_t4_k2 0
n_w1_t5_k0 0
n_w1_t5_k1 0
n_w1_t5_k2 0
n_w1_t6_k0 0
n_w1_t6_k1 0
n_w1_t6_k2 0
n_w1_t7_k0 0
n_w1_t7_k1 0
n_w1_t7_k2 0
n_w1_t8_k0 0
n_w1_t8_k1 0
n_w1_t8_k2 0
n_w1_t9_k0 0
n_w1_t9_k1 0
n_w1_t9_k2 0
n_w1_t10_k0 0
n_w1_t10_k1 0
n_w1_t10_k2 0
n_w1_t11_k0 8.3754779513764266e+00
n_w1_t11_k1 0
n_w1_t11_k2 0
n_w1_t12_k0 0
n_w1_t12_k1 0
n_w1_t12_k2 0
n_w1_t13_k0 0
n_w1_t13_k1 0
n_w1_t13_k2 0
n_w1_t14_k0 9.4600864190822664e-01
n_w1_t14_k1 0
n_w1_t14_k2 0
n_w1_t15_k0 0
n_w1_t15_k1 0
n_w1_t15_k2 8.0138426868450452e+01
n_w1_t16_k0 0
n_w1_t16_k1 0
n_w1_t16_k2 0
n_w1_t17_k0 0
n_w1_t17_k1 0
n_w1_t17_k2 0
n_w1_t18_k0 0
n_w1_t18_k1 0
n_w1_t18_k2 0
n_w1_t19_k0 0
n_w1_t19_k1 0
n_w1_t19_k2 0
n_w1_t20_k0 0
n_w1_t20_k1 0
n_w1_t20_k2 0
n_w1_t21_k0 0
n_w1_t21_k1 0
n_w1_t21_k2 0
n_w1_t22_k0 0
n_w1_t22_k1 0
n_w1_t22_k2 0
n_w1_t23_k0 0
n_w1_t23_k1 0
n_w1_t23_k2 0
n_w1_t24_k0 0
n_w1_t24_k1 0
n_w1_t24_k2 0
n_w1_t25_k0 0
n_w1_t25_k1 0
n_w1_t25_k2 0
n_w1_t26_k0 0
n_w1_t26_k1 0
n_w1_t26_k2 0
n_w1_t27_k0 0
n_w1_t27_k1 0
n_w1_t27_k2 0
n_w1_t28_k0 0
n_w1_t28_k1 0
n_w1_t28_k2 0
n_w1_t29_k0 0
n_w1_t29_k1 0
n_w1_t29_k2 0
n_w1_t30_k0 0
n_w1_t30_k1 0
n_w1_t30_k2 0
n_w1_t31_k0 0
n_w1_t31_k1 0
n_w1_t31_k2 0
n_w1_t32_k0 0
n_w1_t32_k1 0
n_w1_t32_k2 3.5260036712926428e+01
n_w1_t33_k0 0
n_w1_t33_k1 0
n_w1_t33_k2 5.0601536418623134e+01
n_w1_t34_k0 0
n_w1_t34_k1 0
n_w1_t34_k2 0
n_w1_t35_k0 0
n_w1_t35_k1 0
n_w1_t35_k2 0
n_w1_t36_k0 0
n_w1_t36_k1 0
n_w1_t36_k2 0
n_w1_t37_k0 0
n_w1_t37_k1 0
n_w1_t37_k2 0
n_w1_t38_k0 0
n_w1_t38_k1 0
n_w1_t38_k2 0
n_w1_t39_k0 0
n_w1_t39_k1 0
n_w1_t39_k2 0
n_w1_t40_k0 0
n_w1_t40_k1 0
n_w1_t40_k2 0
n_w1_t41_k0 0
n_w1_t41_k1 0
n_w1_t41_k2 0
n_w2_t0_k0 0
n_w2_t0_k1 0
n_w2_t0_k2 0
n_w2_t1_k0 0
n_w2_t1_k1 0
n_w2_t1_k2 0
n_w2_t2_k0 0
n_w2_t2_k1 0
n_w2_t2_k2 0
n_w2_t3_k0 1.8311055345985596e+00
n_w2_t3_k1 0
n_w2_t3_k2 0
n_w2_t4_k0 0
n_w2_t4_k1 0
n_w2_t4_k2 0
n_w2_t5_k0 0
n_w2_t5_k1 0
n_w2_t5_k2 0
n_w2_t6_k0 0
n_w2_t6_k1 0
n_w2_t6_k2 0
n_w2_t7_k0 0
n_w2_t7_k1 2.1279785399944132e+01
n_w2_t7_k2 0
n_w2_t8_k0 0
n_w2_t8_k1 0
n_w2_t8_k2 0
n_w2_t9_k0 0
n_w2_t9_k1 0
n_w2_t9_k2 0
n_w2_t10_k0 0
n_w2_t10_k1 0
n_w2_t10_k2 0
n_w2_t11_k0 9.1368850378651931e+00
n_w2_t11_k1 0
n_w2_t11_k2 0
n_w2_t12_k0 0
n_w2_t12_k1 0
n_w2_t12_k2 0
n_w2_t13_k0 0
n_w2_t13_k1 0
n_w2_t13_k2 0
n_w2_t14_k0 1.0320094275362472e+00
n_w2_t14_k1 0
n_w2_t14_k2 0
n_w2_t15_k0 0
n_w2_t15_k1 1.8737759768757499e+01
n_w2_t15_k2 8.4966042944863233e+01
n_w2_t16_k0 0
n_w2_t16_k1 0
n_w2_t16_k2 0
n_w2_t17_k0 0
n_w2_t17_k1 0
n_w2_t17_k2 0
n_w2_t18_k0 0
n_w2_t18_k1 0
n_w2_t18_k2 0
n_w2_t19_k0 0
n_w2_t19_k1 0
n_w2_t19_k2 0
n_w2_t20_k0 0
n_w2_t20_k1 0
n_w2_t20_k2 0
n_w2_t21_k0 0
n_w2_t21_k1 0
n_w2_t21_k2 0
n_w2_t22_k0 0
n_w2_t22_k1 0
n_w2_t22_k2 0
n_w2_t23_k0 0
n_w2_t23_k1 0
n_w2_t23_k2 0
n_w2_t24_k0 0
n_w2_t24_k1 0
n_w2_t24_k2 0
n_w2_t25_k0 0
n_w2_t25_k1 0
n_w2_t25_k2 0
n_w2_t26_k0 0
n_w2_t26_k1 0
n_w2_t26_k2 0
n_w2_t27_k0 0
n_w2_t27_k1 0
n_w2_t27_k2 0
n_w2_t28_k0 0
n_w2_t28_k1 0
n_w2_t28_k2 0
n_w2_t29_k0 0
n_w2_t29_k1 0
n_w2_t29_k2 0
n_w2_t30_k0 0
n_w2_t30_k1 0
n_w2_t30_k2 0
n_w2_t31_k0 0
n_w2_t31_k1 0
n_w2_t31_k2 0
n_w2_t32_k0 0
n_w2_t32_k1 0
n_w2_t32_k2 3.7384135310090599e+01
n_w2_t33_k0 0
n_w2_t33_k1 2.8982454831298366e+01
n_w2_t33_k2 5.3649821745046154e+01
n_w2_t34_k0 0
n_w2_t34_k1 0
n_w2_t34_k2 0
n_w2_t35_k0 0
n_w2_t35_k1 0
n_w2_t35_k2 0
n_w2_t36_k0 0
n_w2_t36_k1 0
n_w2_t36_k2 0
n_w2_t37_k0 0
n_w2_t37_k1 0
n_w2_t37_k2 0
n_w2_t38_k0 0
n_w2_t38_k1 0
n_w2_t38_k2 0
n_w2_t39_k0 0
n_w2_t39_k1 0
n_w2_t39_k2 0
n_w2_t40_k0 0
n_w2_t40_k1 0
n_w2_t40_k2 0
n_w2_t41_k0 0
n_w2_t41_k1 0
n_w2_t41_k2 0
n_w3_t0_k0 0
n_w3_t0_k1 0
n_w3_t0_k2 0
n_w3_t1_k0 0
n_w3_t1_k1 0
n_w3_t1_k2 0
n_w3_t2_k0 0
n_w3_t2_k1 0
n_w3_t2_k2 0
n_w3_t3_k0 0
n_w3_t3_k1 0
n_w3_t3_k2 0
n_w3_t4_k0 0
n_w3_t4_k1 0
n_w3_t4_k2 0
n_w3_t5_k0 0
n_w3_t5_k1 0
n_w3_t5_k2 0
n_w3_t6_k0 0
n_w3_t6_k1 0
n_w3_t6_k2 0
n_w3_t7_k0 0
n_w3_t7_k1 5.8596510521585286e+00
n_w3_t7_k2 0
n_w3_t8_k0 0
n_w3_t8_k1 0
n_w3_t8_k2 0
n_w3_t9_k0 0
n_w3_t9_k1 0
n_w3_t9_k2 0
n_w3_t10_k0 0
n_w3_t10_k1 0
n_w3_t10_k2 0
n_w3_t11_k0 0
n_w3_t11_k1 0
n_w3_t11_k2 0
n_w3_t12_k0 0
n_w3_t12_k1 0
n_w3_t12_k2 0
n_w3_t13_k0 0
n_w3_t13_k1 0
n_w3_t13_k2 0
n_w3_t14_k0 0
n_w3_t14_k1 0
n_w3_t14_k2 0
n_w3_t15_k0 0
n_w3_t15_k1 5.1596729798027896e+00
n_w3_t15_k2 0
n_w3_t16_k0 0
n_w3_t16_k1 0
n_w3_t16_k2 0
n_w3_t17_k0 0
n_w3_t17_k1 0
n_w3_t17_k2 0
n_w3_t18_k0 0
n_w3_t18_k1 0
n_w3_t18_k2 0
n_w3_t19_k0 0
n_w3_t19_k1 0
n_w3_t19_k2 0
n_w3_t20_k0 0
n_w3_t20_k1 0
n_w3_t20_k2 0
n_w3_t21_k0 0
n_w3_t21_k1 0
n_w3_t21_k2 0
n_w3_t22_k0 0
n_w3_t22_k1 0
n_w3_t22_k2 0
n_w3_t23_k0 0
n_w3_t23_k1 0
n_w3_t23_k2 0
n_w3_t24_k0 0
n_w3_t24_k1 0
n_w3_t24_k2 0
n_w3_t25_k0 0
n_w3_t25_k1 0
n_w3_t25_k2 0
n_w3_t26_k0 0
n_w3_t26_k1 0
n_w3_t26_k2 0
n_w3_t27_k0 0
n_w3_t27_k1 0
n_w3_t27_k2 0
n_w3_t28_k0 0
n_w3_t28_k1 0
n_w3_t28_k2 0
n_w3_t29_k0 0
n_w3_t29_k1 0
n_w3_t29_k2 0
n_w3_t30_k0 0
n_w3_t30_k1 0
n_w3_t30_k2 0
n_w3_t31_k0 0
n_w3_t31_k1 0
n_w3_t31_k2 0
n_w3_t32_k0 0
n_w3_t32_k1 0
n_w3_t32_k2 0
n_w3_t33_k0 0
n_w3_t33_k1 7.9806759680386801e+00
n_w3_t33_k2 0
n_w3_t34_k0 0
n_w3_t34_k1 0
n_w3_t34_k2 0
n_w3_t35_k0 0
n_w3_t35_k1 0
n_w3_t35_k2 0
n_w3_t36_k0 0
n_w3_t36_k1 0
n_w3_t36_k2 0
n_w3_t37_k0 0
n_w3_t37_k1 0
n_w3_t37_k2 0
n_w3_t38_k0 0
n_w3_t38_k1 0
n_w3_t38_k2 0
n_w3_t39_k0 0
n_w3_t39_k1 0
n_w3_t39_k2 0
n_w3_t40_k0 0
n_w3_t40_k1 0
n_w3_t40_k2 0
n_w3_t41_k0 0
n_w3_t41_k1 0
n_w3_t41_k2 0
n_w4_t0_k0 0
n_w4_t0_k1 0
n_w4_t0_k2 0
n_w4_t1_k0 0
n_w4_t1_k1 0
n_w4_t1_k2 0
n_w4_t2_k0 0
n_w4_t2_k1 1.3206022297665747e+00
n_w4_t2_k2 0
n_w4_t3_k0 0
n_w4_t3_k1 0
n_w4_t3_k2 0
n_w4_t4_k0 0
n_w4_t4_k1 0
n_w4_t4_k2 0
n_w4_t5_k0 0
n_w4_t5_k1 0
n_w4_t5_k2 0
n_w4_t6_k0 0
n_w4_t6_k1 0
n_w4_t6_k2 0
n_w4_t7_k0 0
n_w4_t7_k1 0
n_w4_t7_k2 0
n_w4_t8_k0 0
n_w4_t8_k1 0
n_w4_t8_k2 0
n_w4_t9_k0 0
n_w4_t9_k1 0
n_w4_t9_k2 0
n_w4_t10_k0 0
n_w4_t10_k1 0
n_w4_t10_k2 0
n_w4_t11_k0 0
n_w4_t11_k1 3.0764174219796548e+01
n_w4_t11_k2 0
n_w4_t12_k0 0
n_w4_t12_k1 0
n_w4_t12_k2 0
n_w4_t13_k0 0
n_w4_t13_k1 0
n_w4_t13_k2 0
n_w4_t14_k0 0
n_w4_t14_k1 0
n_w4_t14_k2 0
n_w4_t15_k0 0
n_w4_t15_k1 8.2915223550436878e+01
n_w4_t15_k2 0
n_w4_t16_k0 0
n_w4_t16_k1 0
n_w4_t16_k2 0
n_w4_t17_k0 0
n_w4_t17_k1 0
n_w4_t17_k2 0
n_w4_t18_k0 0
n_w4_t18_k1 0
n_w4_t18_k2 0
n_w4_t19_k0 0
n_w4_t19_k1 0
n_w4_t19_k2 0
n_w4_t20_k0 0
n_w4_t20_k1 0
n_w4_t20_k2 0
n_w4_t21_k0 0
n_w4_t21_k1 0
n_w4_t21_k2 0
n_w4_t22_k0 0
n_w4_t22_k1 0
n_w4_t22_k2 0
n_w4_t23_k0 0
n_w4_t23_k1 0
n_w4_t23_k2 0
n_w4_t24_k0 0
n_w4_t24_k1 0
n_w4_t24_k2 0
n_w4_t25_k0 0
n_w4_t25_k1 0
n_w4_t25_k2 0
n_w4_t26_k0 0
n_w4_t26_k1 0
n_w4_t26_k2 0
n_w4_t27_k0 0
n_w4_t27_k1 0
n_w4_t27_k2 0
n_w4_t28_k0 0
n_w4_t28_k1 0
n_w4_t28_k2 0
n_w4_t29_k0 0
n_w4_t29_k1 0
n_w4_t29_k2 0
n_w4_t30_k0 0
n_w4_t30_k1 0
n_w4_t30_k2 0
n_w4_t31_k0 0
n_w4_t31_k1 0
n_w4_t31_k2 0
n_w4_t32_k0 0
n_w4_t32_k1 0
n_w4_t32_k2 0
n_w4_t33_k0 0
n_w4_t33_k1 0
n_w4_t33_k2 0
n_w4_t34_k0 0
n_w4_t34_k1 0
n_w4_t34_k2 0
n_w4_t35_k0 0
n_w4_t35_k1 0
n_w4_t35_k2 0
n_w4_t36_k0 0
n_w4_t36_k1 0
n_w4_t36_k2 0
n_w4_t37_k0 0
n_w4_t37_k1 0
n_w4_t37_k2 0
n_w4_t38_k0 0
n_w4_t38_k1 0
n_w4_t38_k2 0
n_w4_t39_k0 0
n_w4_t39_k1 0
n_w4_t39_k2 0
n_w4_t40_k0 0
n_w4_t40_k1 0
n_w4_t40_k2 0
n_w4_t41_k0 0
n_w4_t41_k1 0
n_w4_t41_k2 0
o_w0_r0 0
o_w0_r1 0
o_w0_r2 0
o_w0_r3 1.4815232149357628e+01
o_w0_r4 0
o_w0_r5 0
o_w1_r0 0
o_w1_r1 0
o_w1_r2 0
o_w1_r3 0
o_w1_r4 0
o_w1_r5 0
o_w2_r0 0
o_w2_r1 0
o_w2_r2 0
o_w2_r3 1.0470118247305837e+02
o_w2_r4 0
o_w2_r5 0
o_w3_r0 0
o_w3_r1 0
o_w3_r2 0
o_w3_r3 0
o_w3_r4 0
o_w3_r5 0
o_w4_r0 0
o_w4_r1 0
o_w4_r2 0
o_w4_r3 8.2260193284388421e+01
o_w4_r4 0
o_w4_r5 0
y_w0_r0 0
y_w0_r1 2.6329524437342633e-01
y_w0_r2 5.9324402152257694e-01
y_w0_r3 6.7926279031341588e-02
y_w0_r4 4.1523731974639440e-02
y_w0_r5 2.4899350570470543e-02
y_w1_r0 0
y_w1_r1 4.4897669681525570e-01
y_w1_r2 1.6145877588090412e+00
y_w1_r3 1.2231920560066256e+00
y_w1_r4 2.6511305799192803e-01
y_w1_r5 1.0498481682389280e-01
y_w2_r0 2.5035041646993095e-01
y_w2_r1 6.1408163373507818e-01
y_w2_r2 2.3531193059061590e+00
y_w2_r3 1.0553490824821930e-02
y_w2_r4 2.8108372413601956e-01
y_w2_r5 1.7039569450892214e-01
y_w3_r0 6.8937071201865041e-02
y_w3_r1 3.7644697962446606e-02
y_w3_r2 1.7592592592592593e-01
y_w3_r3 1.3906437399096350e+00
y_w3_r4 0
y_w3_r5 1.6253922541830307e-02
y_w4_r0 0
y_w4_r1 1.4511402933866296e-01
y_w4_r2 1.0648148148148149e+00
y_w4_r3 8.2915223550436880e-03
y_w4_r4 0
y_w4_r5 0
p_w0 2.6842408372428532e+00
s_w0 2.6842408372428532e+00
p_w1 1.0070065155338369e+01
s_w1 7.3858243180955157e+00
p_w2 9.5807988487077331e+00
s_w2 2.1949745306122166e+00
p_w3 4.9299348446616289e+00
s_w3 2.7349603140494123e+00
p_w4 2.7349603140494123e+00
s_w4 0
